NAME          COPTPROB
OBJSENSE
  MIN
ROWS
 N  __OBJ___
 L  C0      
 L  C4      
 L  C6      
 L  C8      
 L  C11     
 L  C12     
 L  C14     
 L  C16     
 L  C19     
 L  C21     
 L  C22     
 L  C25     
 L  C26     
 L  C27     
 L  C28     
 L  C29     
 L  C30     
 L  C31     
 L  C32     
 L  C34     
 L  C35     
 L  C36     
 L  C39     
 L  C40     
 L  C41     
 L  C43     
 L  C50     
 L  C54     
 L  C57     
 L  C60     
 L  C61     
 L  C62     
 L  C65     
 L  C68     
 L  C69     
 L  C70     
 L  C72     
 L  C74     
 L  C77     
 L  C80     
 L  C81     
 L  C83     
 L  C85     
 L  C86     
 L  C87     
 L  C88     
 L  C91     
 L  C92     
 L  C95     
 L  C99     
 L  C100    
 L  C101    
 L  C102    
 L  C103    
 L  C106    
 L  C107    
 L  C108    
 L  C109    
 L  C114    
 L  C116    
 L  C118    
 L  C119    
 L  C120    
 L  C123    
 L  C124    
 L  C126    
 L  C129    
 L  C130    
 L  C131    
 L  C132    
 L  C135    
 L  C138    
 L  C139    
 L  C142    
 L  C144    
 L  C147    
 L  C148    
 L  C153    
 L  C154    
 L  C156    
 L  C160    
 L  C162    
 L  C163    
 L  C164    
 L  C165    
 L  C167    
 L  C168    
 L  C170    
 L  C171    
 L  C172    
 L  C175    
 L  C176    
 L  C177    
 L  C178    
 L  C179    
 L  C181    
 L  C183    
 L  C184    
 L  C186    
 L  C187    
 L  C190    
 L  C191    
 L  C195    
 L  C200    
 L  C203    
 L  C205    
 L  C207    
 L  C210    
 L  C211    
 L  C212    
 L  C213    
 L  C217    
 L  C218    
 L  C219    
 L  C220    
 L  C221    
 L  C223    
 L  C224    
 L  C225    
 L  C227    
 L  C228    
 L  C230    
 L  C233    
 L  C234    
 L  C238    
 L  C242    
 L  C243    
 L  C247    
 L  C248    
 L  C252    
 L  C253    
 L  C254    
 L  C255    
 L  C256    
 L  C257    
 L  C258    
 L  C261    
 L  C263    
 L  C265    
 L  C266    
 L  C268    
 L  C269    
 L  C270    
 L  C272    
 L  C273    
 L  C274    
 L  C276    
 L  C277    
 L  C278    
 L  C280    
 L  C281    
 L  C282    
 L  C283    
 L  C284    
 L  C285    
 L  C289    
 L  C290    
 L  C292    
 L  C293    
 L  C295    
 L  C301    
 L  C305    
 L  C306    
 L  C308    
 L  C309    
 L  C310    
 L  C311    
 L  C312    
 L  C313    
 L  C314    
 L  C315    
 L  C317    
 L  C321    
 L  C323    
 L  C324    
 L  C327    
 L  C329    
 L  C332    
 L  C333    
 L  C334    
 L  C335    
 L  C336    
 L  C341    
 L  C343    
 L  C344    
 L  C346    
 L  C347    
 L  C348    
 L  C350    
 L  C351    
 L  C353    
 L  C354    
 L  C356    
 L  C358    
 L  C360    
 L  C361    
 L  C365    
 L  C367    
 L  C369    
 L  C371    
 L  C372    
 L  C374    
 L  C375    
 L  C377    
 L  C379    
 L  C380    
 L  C381    
 L  C385    
 L  C388    
 L  C391    
 L  C392    
 L  C397    
COLUMNS
    MARKER    'MARKER'                 'INTORG'
    x1        __OBJ___  490
    x1        C210      -1
    x1        C225      -1
    x1        C274      -1
    x2        __OBJ___  480
    x2        C124      -1
    x2        C132      -1
    x2        C147      -1
    x2        C266      -1
    x2        C329      -1
    x3        __OBJ___  337
    x3        C57       -1
    x3        C130      -1
    x3        C179      -1
    x4        __OBJ___  731
    x4        C99       -1
    x4        C218      -1
    x4        C223      -1
    x4        C238      -1
    x4        C344      -1
    x5        __OBJ___  281
    x5        C92       -1
    x5        C153      -1
    x5        C268      -1
    x7        __OBJ___  123
    x7        C35       -1
    x7        C186      -1
    x7        C277      -1
    x7        C324      -1
    x8        __OBJ___  947
    x8        C217      -1
    x8        C315      -1
    x8        C335      -1
    x10       __OBJ___  373
    x10       C165      -1
    x10       C203      -1
    x10       C248      -1
    x13       __OBJ___  377
    x13       C11       -1
    x13       C29       -1
    x13       C31       -1
    x13       C200      -1
    x13       C212      -1
    x13       C392      -1
    x14       __OBJ___  684
    x14       C62       -1
    x14       C154      -1
    x14       C220      -1
    x15       __OBJ___  936
    x15       C12       -1
    x15       C138      -1
    x15       C356      -1
    x16       __OBJ___  649
    x16       C32       -1
    x16       C107      -1
    x16       C135      -1
    x16       C176      -1
    x16       C332      -1
    x17       __OBJ___  980
    x17       C234      -1
    x17       C397      -1
    x23       __OBJ___  251
    x23       C184      -1
    x23       C230      -1
    x23       C252      -1
    x23       C372      -1
    x24       __OBJ___  69
    x24       C19       -1
    x24       C343      -1
    x24       C381      -1
    x25       __OBJ___  258
    x25       C65       -1
    x25       C281      -1
    x25       C301      -1
    x25       C341      -1
    x26       __OBJ___  426
    x26       C80       -1
    x26       C88       -1
    x26       C333      -1
    x27       __OBJ___  831
    x27       C22       -1
    x27       C40       -1
    x27       C114      -1
    x27       C221      -1
    x28       __OBJ___  196
    x28       C187      -1
    x28       C314      -1
    x28       C358      -1
    x30       __OBJ___  271
    x30       C54       -1
    x30       C86       -1
    x32       __OBJ___  188
    x32       C292      -1
    x32       C377      -1
    x33       __OBJ___  91
    x33       C60       -1
    x33       C91       -1
    x33       C156      -1
    x34       __OBJ___  543
    x34       C289      -1
    x34       C311      -1
    x35       __OBJ___  87
    x35       C164      -1
    x35       C205      -1
    x35       C233      -1
    x35       C306      -1
    x41       __OBJ___  489
    x41       C178      -1
    x41       C195      -1
    x41       C228      -1
    x41       C371      -1
    x42       __OBJ___  680
    x42       C148      -1
    x42       C243      -1
    x43       __OBJ___  276
    x43       C6        -1
    x43       C106      -1
    x43       C126      -1
    x43       C219      -1
    x43       C312      -1
    x47       __OBJ___  399
    x47       C14       -1
    x47       C39       -1
    x47       C43       -1
    x47       C87       -1
    x47       C102      -1
    x47       C103      -1
    x48       __OBJ___  25
    x48       C171      -1
    x48       C213      -1
    x48       C261      -1
    x51       __OBJ___  423
    x51       C27       -1
    x51       C118      -1
    x53       __OBJ___  20
    x53       C0        -1
    x53       C269      -1
    x54       __OBJ___  488
    x54       C284      -1
    x55       __OBJ___  267
    x55       C61       -1
    x55       C175      -1
    x55       C183      -1
    x57       __OBJ___  98
    x57       C4        -1
    x57       C367      -1
    x58       __OBJ___  730
    x58       C16       -1
    x58       C69       -1
    x58       C119      -1
    x58       C361      -1
    x60       __OBJ___  472
    x60       C28       -1
    x60       C172      -1
    x60       C278      -1
    x61       __OBJ___  961
    x61       C26       -1
    x61       C50       -1
    x61       C120      -1
    x61       C247      -1
    x61       C276      -1
    x61       C354      -1
    x62       __OBJ___  262
    x62       C167      -1
    x62       C224      -1
    x62       C272      -1
    x62       C327      -1
    x62       C348      -1
    x64       __OBJ___  833
    x64       C108      -1
    x64       C131      -1
    x64       C144      -1
    x64       C293      -1
    x64       C321      -1
    x64       C369      -1
    x65       __OBJ___  512
    x65       C74       -1
    x65       C227      -1
    x65       C273      -1
    x65       C290      -1
    x65       C309      -1
    x66       __OBJ___  115
    x66       C8        -1
    x66       C95       -1
    x66       C100      -1
    x66       C211      -1
    x66       C265      -1
    x66       C347      -1
    x69       __OBJ___  545
    x69       C129      -1
    x69       C181      -1
    x69       C256      -1
    x69       C282      -1
    x69       C350      -1
    x69       C379      -1
    x74       __OBJ___  925
    x74       C41       -1
    x74       C163      -1
    x74       C351      -1
    x74       C353      -1
    x75       __OBJ___  289
    x75       C81       -1
    x75       C123      -1
    x75       C254      -1
    x77       __OBJ___  998
    x77       C25       -1
    x77       C160      -1
    x77       C310      -1
    x77       C365      -1
    x78       __OBJ___  229
    x78       C109      -1
    x78       C270      -1
    x78       C295      -1
    x78       C305      -1
    x83       __OBJ___  376
    x83       C85       -1
    x83       C139      -1
    x83       C317      -1
    x86       __OBJ___  438
    x86       C30       -1
    x86       C70       -1
    x86       C207      -1
    x86       C313      -1
    x86       C334      -1
    x86       C360      -1
    x86       C374      -1
    x88       __OBJ___  487
    x88       C83       -1
    x88       C116      -1
    x88       C255      -1
    x88       C258      -1
    x91       __OBJ___  81
    x91       C190      -1
    x91       C242      -1
    x93       __OBJ___  682
    x93       C170      -1
    x93       C253      -1
    x93       C308      -1
    x93       C323      -1
    x96       __OBJ___  336
    x96       C30       -1
    x96       C69       -1
    x96       C356      -1
    x97       __OBJ___  322
    x97       C34       -1
    x97       C65       -1
    x97       C118      -1
    x97       C261      -1
    x97       C365      -1
    x99       __OBJ___  279
    x99       C77       -1
    x99       C380      -1
    x99       C381      -1
    x106      __OBJ___  196
    x106      C100      -1
    x106      C195      -1
    x106      C358      -1
    x108      __OBJ___  174
    x108      C87       -1
    x109      __OBJ___  647
    x109      C68       -1
    x109      C183      -1
    x109      C224      -1
    x109      C372      -1
    x109      C375      -1
    x113      __OBJ___  48
    x113      C4        -1
    x113      C40       -1
    x113      C305      -1
    x113      C392      -1
    x115      __OBJ___  380
    x115      C65       -1
    x115      C323      -1
    x117      __OBJ___  579
    x117      C238      -1
    x117      C289      -1
    x117      C327      -1
    x117      C336      -1
    x120      __OBJ___  287
    x120      C225      -1
    x120      C341      -1
    x120      C344      -1
    x120      C377      -1
    x122      __OBJ___  66
    x122      C129      -1
    x122      C347      -1
    x122      C371      -1
    x123      __OBJ___  228
    x123      C68       -1
    x123      C147      -1
    x125      __OBJ___  306
    x125      C19       -1
    x125      C311      -1
    x126      __OBJ___  142
    x126      C77       -1
    x126      C243      -1
    x126      C281      -1
    x127      __OBJ___  965
    x127      C70       -1
    x127      C285      -1
    x128      __OBJ___  193
    x128      C72       -1
    x128      C172      -1
    x128      C191      -1
    x128      C252      -1
    x128      C369      -1
    x128      C377      -1
    x129      __OBJ___  308
    x129      C57       -1
    x129      C170      -1
    x131      __OBJ___  775
    x131      C131      -1
    x131      C220      -1
    x131      C397      -1
    x133      __OBJ___  277
    x133      C256      -1
    x137      __OBJ___  429
    x137      C124      -1
    x137      C190      -1
    x137      C311      -1
    x138      __OBJ___  413
    x138      C6        -1
    x138      C165      -1
    x138      C333      -1
    x139      __OBJ___  482
    x139      C168      -1
    x139      C282      -1
    x139      C334      -1
    x140      __OBJ___  102
    x140      C131      -1
    x140      C268      -1
    x141      __OBJ___  225
    x141      C130      -1
    x141      C227      -1
    x141      C336      -1
    x148      __OBJ___  654
    x148      C156      -1
    x148      C165      -1
    x148      C388      -1
    x149      __OBJ___  382
    x149      C108      -1
    x149      C109      -1
    x149      C162      -1
    x149      C177      -1
    x150      __OBJ___  528
    x150      C191      -1
    x150      C211      -1
    x150      C256      -1
    x154      __OBJ___  63
    x154      C142      -1
    x154      C254      -1
    x154      C361      -1
    x159      __OBJ___  521
    x159      C135      -1
    x159      C163      -1
    x159      C230      -1
    x159      C343      -1
    x159      C385      -1
    x160      __OBJ___  69
    x160      C54       -1
    x160      C74       -1
    x161      __OBJ___  391
    x161      C108      -1
    x161      C266      -1
    x161      C360      -1
    x163      __OBJ___  167
    x163      C91       -1
    x163      C142      -1
    x163      C280      -1
    x163      C292      -1
    x167      __OBJ___  47
    x167      C6        -1
    x167      C40       -1
    x167      C203      -1
    x169      __OBJ___  78
    x169      C80       -1
    x169      C177      -1
    x170      __OBJ___  110
    x170      C0        -1
    x170      C118      -1
    x171      __OBJ___  436
    x171      C253      -1
    x171      C317      -1
    x172      __OBJ___  288
    x172      C22       -1
    x172      C57       -1
    x172      C252      -1
    x172      C336      -1
    x173      __OBJ___  142
    x173      C103      -1
    x173      C210      -1
    x173      C266      -1
    x173      C332      -1
    x174      __OBJ___  325
    x174      C238      -1
    x174      C247      -1
    x174      C292      -1
    x174      C381      -1
    x176      __OBJ___  229
    x176      C8        -1
    x176      C177      -1
    x176      C217      -1
    x177      __OBJ___  317
    x177      C257      -1
    x177      C276      -1
    x189      __OBJ___  256
    x189      C101      -1
    x189      C162      -1
    x189      C178      -1
    x189      C277      -1
    x191      __OBJ___  216
    x191      C11       -1
    x191      C12       -1
    x191      C32       -1
    x193      __OBJ___  211
    x193      C43       -1
    x193      C346      -1
    x195      __OBJ___  560
    x195      C25       -1
    x195      C253      -1
    x195      C285      -1
    x197      __OBJ___  216
    x197      C211      -1
    x197      C263      -1
    x197      C308      -1
    x198      __OBJ___  182
    x198      C69       -1
    x199      __OBJ___  458
    x199      C26       -1
    x199      C54       -1
    x199      C87       -1
    x202      __OBJ___  767
    x202      C25       -1
    x202      C184      -1
    x202      C354      -1
    x202      C397      -1
    x206      __OBJ___  212
    x206      C83       -1
    x206      C103      -1
    x206      C126      -1
    x206      C135      -1
    x206      C301      -1
    x207      __OBJ___  638
    x207      C147      -1
    x207      C323      -1
    x207      C332      -1
    x208      __OBJ___  252
    x208      C175      -1
    x208      C377      -1
    x210      __OBJ___  206
    x210      C187      -1
    x210      C281      -1
    x210      C314      -1
    x210      C372      -1
    x211      __OBJ___  208
    x211      C108      -1
    x215      __OBJ___  128
    x215      C126      -1
    x215      C160      -1
    x220      __OBJ___  852
    x220      C255      -1
    x220      C270      -1
    x220      C274      -1
    x221      __OBJ___  991
    x221      C16       -1
    x221      C124      -1
    x221      C144      -1
    x221      C356      -1
    x221      C385      -1
    x221      C397      -1
    x223      __OBJ___  707
    x223      C68       -1
    x223      C86       -1
    x223      C217      -1
    x226      __OBJ___  208
    x226      C163      -1
    x226      C266      -1
    x227      __OBJ___  630
    x227      C77       -1
    x227      C92       -1
    x227      C154      -1
    x227      C270      -1
    x228      __OBJ___  571
    x228      C32       -1
    x228      C57       -1
    x228      C324      -1
    x228      C360      -1
    x229      __OBJ___  188
    x229      C228      -1
    x229      C309      -1
    x229      C391      -1
    x231      __OBJ___  311
    x231      C124      -1
    x231      C230      -1
    x232      __OBJ___  6
    x232      C83       -1
    x232      C200      -1
    x233      __OBJ___  501
    x233      C54       -1
    x233      C119      -1
    x233      C190      -1
    x234      __OBJ___  188
    x234      C203      -1
    x234      C242      -1
    x234      C367      -1
    x240      __OBJ___  109
    x240      C221      -1
    x240      C380      -1
    x241      __OBJ___  749
    x241      C277      -1
    x241      C283      -1
    x241      C311      -1
    x247      __OBJ___  933
    x247      C102      -1
    x247      C223      -1
    x247      C348      -1
    x248      __OBJ___  427
    x248      C165      -1
    x248      C220      -1
    x249      __OBJ___  443
    x249      C255      -1
    x249      C283      -1
    x249      C295      -1
    x249      C329      -1
    x249      C367      -1
    x250      __OBJ___  253
    x250      C309      -1
    x250      C374      -1
    x252      __OBJ___  532
    x252      C62       -1
    x252      C171      -1
    x252      C242      -1
    x252      C272      -1
    x254      __OBJ___  46
    x254      C11       -1
    x254      C172      -1
    x255      __OBJ___  316
    x255      C4        -1
    x255      C124      -1
    x255      C295      -1
    x256      __OBJ___  904
    x256      C139      -1
    x256      C148      -1
    x256      C272      -1
    x256      C333      -1
    x256      C354      -1
    x257      __OBJ___  560
    x257      C91       -1
    x257      C95       -1
    x257      C220      -1
    x257      C225      -1
    x257      C282      -1
    x257      C391      -1
    x260      __OBJ___  726
    x260      C50       -1
    x260      C70       -1
    x260      C119      -1
    x260      C132      -1
    x260      C369      -1
    x260      C379      -1
    x264      __OBJ___  915
    x264      C218      -1
    x264      C284      -1
    x264      C356      -1
    x265      __OBJ___  14
    x265      C130      -1
    x266      __OBJ___  124
    x266      C21       -1
    x266      C306      -1
    x267      __OBJ___  30
    x267      C36       -1
    x269      __OBJ___  879
    x269      C36       -1
    x269      C116      -1
    x269      C148      -1
    x269      C305      -1
    x270      __OBJ___  155
    x270      C195      -1
    x270      C308      -1
    x270      C360      -1
    x272      __OBJ___  390
    x272      C120      -1
    x272      C248      -1
    x272      C272      -1
    x272      C343      -1
    x273      __OBJ___  191
    x273      C16       -1
    x273      C69       -1
    x273      C109      -1
    x274      __OBJ___  601
    x274      C123      -1
    x274      C285      -1
    x274      C351      -1
    x277      __OBJ___  572
    x277      C60       -1
    x277      C72       -1
    x277      C293      -1
    x278      __OBJ___  547
    x278      C167      -1
    x278      C225      -1
    x278      C243      -1
    x278      C284      -1
    x279      __OBJ___  623
    x279      C32       -1
    x279      C99       -1
    x279      C109      -1
    x279      C135      -1
    x279      C162      -1
    x280      __OBJ___  711
    x280      C95       -1
    x280      C278      -1
    x280      C348      -1
    x280      C365      -1
    x282      __OBJ___  946
    x282      C39       -1
    x282      C114      -1
    x282      C317      -1
    x282      C391      -1
    x283      __OBJ___  761
    x283      C163      -1
    x283      C310      -1
    x286      __OBJ___  546
    x286      C138      -1
    x286      C311      -1
    x287      __OBJ___  166
    x287      C0        -1
    x287      C35       -1
    x287      C233      -1
    x288      __OBJ___  61
    x288      C305      -1
    x288      C385      -1
    x290      __OBJ___  664
    x290      C34       -1
    x290      C371      -1
    x290      C397      -1
    x295      __OBJ___  200
    x295      C210      -1
    x295      C257      -1
    x295      C314      -1
    x296      __OBJ___  613
    x296      C21       -1
    x296      C213      -1
    x296      C255      -1
    x296      C313      -1
    x300      __OBJ___  34
    x300      C144      -1
    x300      C205      -1
    x302      __OBJ___  608
    x302      C106      -1
    x302      C310      -1
    x302      C367      -1
    x304      __OBJ___  101
    x304      C224      -1
    x304      C252      -1
    x304      C343      -1
    x305      __OBJ___  395
    x305      C101      -1
    x305      C207      -1
    x305      C263      -1
    x309      __OBJ___  778
    x309      C61       -1
    x309      C351      -1
    x311      __OBJ___  709
    x311      C228      -1
    x311      C234      -1
    x311      C346      -1
    x312      __OBJ___  483
    x312      C70       -1
    x312      C135      -1
    x312      C187      -1
    x312      C358      -1
    x313      __OBJ___  422
    x313      C30       -1
    x313      C85       -1
    x313      C88       -1
    x313      C130      -1
    x315      __OBJ___  715
    x315      C107      -1
    x315      C252      -1
    x317      __OBJ___  117
    x317      C162      -1
    x317      C309      -1
    x317      C321      -1
    x317      C329      -1
    x318      __OBJ___  643
    x318      C116      -1
    x318      C139      -1
    x319      __OBJ___  567
    x319      C181      -1
    x319      C258      -1
    x319      C263      -1
    x320      __OBJ___  913
    x320      C14       -1
    x320      C335      -1
    x321      __OBJ___  584
    x321      C109      -1
    x321      C176      -1
    x322      __OBJ___  148
    x322      C306      -1
    x322      C309      -1
    x323      __OBJ___  550
    x323      C28       -1
    x323      C178      -1
    x324      __OBJ___  189
    x324      C85       -1
    x324      C212      -1
    x327      __OBJ___  579
    x327      C28       -1
    x327      C170      -1
    x327      C312      -1
    x329      __OBJ___  670
    x329      C16       -1
    x329      C68       -1
    x329      C181      -1
    x330      __OBJ___  283
    x330      C278      -1
    x330      C350      -1
    x331      __OBJ___  655
    x331      C212      -1
    x331      C283      -1
    x331      C308      -1
    x332      __OBJ___  523
    x332      C164      -1
    x332      C200      -1
    x332      C258      -1
    x332      C344      -1
    x333      __OBJ___  30
    x333      C34       -1
    x333      C375      -1
    x334      __OBJ___  95
    x334      C81       -1
    x334      C230      -1
    x334      C243      -1
    x335      __OBJ___  285
    x335      C29       -1
    x335      C130      -1
    x335      C212      -1
    x335      C369      -1
    x340      __OBJ___  870
    x340      C27       -1
    x340      C29       -1
    x340      C178      -1
    x340      C272      -1
    x340      C367      -1
    x340      C372      -1
    x342      __OBJ___  434
    x342      C210      -1
    x342      C315      -1
    x342      C353      -1
    x343      __OBJ___  212
    x343      C36       -1
    x343      C365      -1
    x344      __OBJ___  436
    x344      C227      -1
    x344      C278      -1
    x345      __OBJ___  287
    x345      C123      -1
    x346      __OBJ___  298
    x346      C30       -1
    x346      C83       -1
    x349      __OBJ___  234
    x349      C139      -1
    x349      C309      -1
    x352      __OBJ___  486
    x352      C301      -1
    x352      C371      -1
    x352      C379      -1
    x353      __OBJ___  527
    x353      C4        -1
    x353      C219      -1
    x353      C290      -1
    x356      __OBJ___  136
    x356      C144      -1
    x356      C263      -1
    x359      __OBJ___  411
    x359      C77       -1
    x359      C183      -1
    x359      C336      -1
    x359      C343      -1
    x360      __OBJ___  797
    x360      C108      -1
    x360      C138      -1
    x360      C147      -1
    x360      C277      -1
    x360      C306      -1
    x361      __OBJ___  185
    x361      C164      -1
    x361      C258      -1
    x361      C314      -1
    x363      __OBJ___  610
    x363      C116      -1
    x363      C176      -1
    x363      C254      -1
    x366      __OBJ___  938
    x366      C28       -1
    x366      C34       -1
    x366      C255      -1
    x367      __OBJ___  143
    x367      C16       -1
    x367      C132      -1
    x367      C153      -1
    x367      C265      -1
    x368      __OBJ___  217
    x368      C313      -1
    x369      __OBJ___  738
    x369      C31       -1
    x369      C228      -1
    x369      C242      -1
    x369      C358      -1
    x370      __OBJ___  246
    x370      C16       -1
    x370      C102      -1
    x372      __OBJ___  819
    x372      C92       -1
    x372      C290      -1
    x372      C335      -1
    x378      __OBJ___  335
    x378      C129      -1
    x378      C292      -1
    x378      C388      -1
    x379      __OBJ___  338
    x379      C68       -1
    x379      C324      -1
    x380      __OBJ___  332
    x380      C269      -1
    x380      C276      -1
    x380      C277      -1
    x381      __OBJ___  452
    x381      C114      -1
    x381      C179      -1
    x381      C365      -1
    x382      __OBJ___  379
    x382      C162      -1
    x382      C186      -1
    x382      C212      -1
    x382      C321      -1
    x383      __OBJ___  93
    x383      C273      -1
    x383      C306      -1
    x385      __OBJ___  157
    x385      C170      -1
    x387      __OBJ___  905
    x387      C280      -1
    x387      C283      -1
    x387      C293      -1
    x387      C327      -1
    x389      __OBJ___  356
    x389      C341      -1
    x389      C354      -1
    x390      __OBJ___  340
    x390      C6        -1
    x390      C41       -1
    x390      C218      -1
    x390      C375      -1
    x393      __OBJ___  456
    x393      C131      -1
    x393      C175      -1
    x393      C292      -1
    x397      __OBJ___  283
    x397      C168      -1
    x397      C203      -1
    x397      C238      -1
    MARKER    'MARKER'                 'INTEND'
RHS
    RHS       __OBJ___  -12500
    RHS       C0        -1
    RHS       C4        -1
    RHS       C6        -1
    RHS       C8        -1
    RHS       C11       -1
    RHS       C12       -1
    RHS       C14       -1
    RHS       C16       -1
    RHS       C19       -1
    RHS       C21       -1
    RHS       C22       -1
    RHS       C25       -1
    RHS       C26       -1
    RHS       C27       -1
    RHS       C28       -1
    RHS       C29       -1
    RHS       C30       -1
    RHS       C31       -1
    RHS       C32       -1
    RHS       C34       -1
    RHS       C35       -1
    RHS       C36       -1
    RHS       C39       -1
    RHS       C40       -1
    RHS       C41       -1
    RHS       C43       -1
    RHS       C50       -1
    RHS       C54       -1
    RHS       C57       -1
    RHS       C60       -1
    RHS       C61       -1
    RHS       C62       -1
    RHS       C65       -1
    RHS       C68       -1
    RHS       C69       -1
    RHS       C70       -1
    RHS       C72       -1
    RHS       C74       -1
    RHS       C77       -1
    RHS       C80       -1
    RHS       C81       -1
    RHS       C83       -1
    RHS       C85       -1
    RHS       C86       -1
    RHS       C87       -1
    RHS       C88       -1
    RHS       C91       -1
    RHS       C92       -1
    RHS       C95       -1
    RHS       C99       -1
    RHS       C100      -1
    RHS       C101      -1
    RHS       C102      -1
    RHS       C103      -1
    RHS       C106      -1
    RHS       C107      -1
    RHS       C108      -1
    RHS       C109      -1
    RHS       C114      -1
    RHS       C116      -1
    RHS       C118      -1
    RHS       C119      -1
    RHS       C120      -1
    RHS       C123      -1
    RHS       C124      -1
    RHS       C126      -1
    RHS       C129      -1
    RHS       C130      -1
    RHS       C131      -1
    RHS       C132      -1
    RHS       C135      -1
    RHS       C138      -1
    RHS       C139      -1
    RHS       C142      -1
    RHS       C144      -1
    RHS       C147      -1
    RHS       C148      -1
    RHS       C153      -1
    RHS       C154      -1
    RHS       C156      -1
    RHS       C160      -1
    RHS       C162      -1
    RHS       C163      -1
    RHS       C164      -1
    RHS       C165      -1
    RHS       C167      -1
    RHS       C168      -1
    RHS       C170      -1
    RHS       C171      -1
    RHS       C172      -1
    RHS       C175      -1
    RHS       C176      -1
    RHS       C177      -1
    RHS       C178      -1
    RHS       C179      -1
    RHS       C181      -1
    RHS       C183      -1
    RHS       C184      -1
    RHS       C186      -1
    RHS       C187      -1
    RHS       C190      -1
    RHS       C191      -1
    RHS       C195      -1
    RHS       C200      -1
    RHS       C203      -1
    RHS       C205      -1
    RHS       C207      -1
    RHS       C210      -1
    RHS       C211      -1
    RHS       C212      -1
    RHS       C213      -1
    RHS       C217      -1
    RHS       C218      -1
    RHS       C219      -1
    RHS       C220      -1
    RHS       C221      -1
    RHS       C223      -1
    RHS       C224      -1
    RHS       C225      -1
    RHS       C227      -1
    RHS       C228      -1
    RHS       C230      -1
    RHS       C233      -1
    RHS       C234      -1
    RHS       C238      -1
    RHS       C242      -1
    RHS       C243      -1
    RHS       C247      -1
    RHS       C248      -1
    RHS       C252      -1
    RHS       C253      -1
    RHS       C254      -1
    RHS       C255      -1
    RHS       C256      -1
    RHS       C257      -1
    RHS       C258      -1
    RHS       C261      -1
    RHS       C263      -1
    RHS       C265      -1
    RHS       C266      -1
    RHS       C268      -1
    RHS       C269      -1
    RHS       C270      -1
    RHS       C272      -1
    RHS       C273      -1
    RHS       C274      -1
    RHS       C276      -1
    RHS       C277      -1
    RHS       C278      -1
    RHS       C280      -1
    RHS       C281      -1
    RHS       C282      -1
    RHS       C283      -1
    RHS       C284      -1
    RHS       C285      -1
    RHS       C289      -1
    RHS       C290      -1
    RHS       C292      -1
    RHS       C293      -1
    RHS       C295      -1
    RHS       C301      -1
    RHS       C305      -1
    RHS       C306      -1
    RHS       C308      -1
    RHS       C309      -1
    RHS       C310      -1
    RHS       C311      -1
    RHS       C312      -1
    RHS       C313      -1
    RHS       C314      -1
    RHS       C315      -1
    RHS       C317      -1
    RHS       C321      -1
    RHS       C323      -1
    RHS       C324      -1
    RHS       C327      -1
    RHS       C329      -1
    RHS       C332      -1
    RHS       C333      -1
    RHS       C334      -1
    RHS       C335      -1
    RHS       C336      -1
    RHS       C341      -1
    RHS       C343      -1
    RHS       C344      -1
    RHS       C346      -1
    RHS       C347      -1
    RHS       C348      -1
    RHS       C350      -1
    RHS       C351      -1
    RHS       C353      -1
    RHS       C354      -1
    RHS       C356      -1
    RHS       C358      -1
    RHS       C360      -1
    RHS       C361      -1
    RHS       C365      -1
    RHS       C367      -1
    RHS       C369      -1
    RHS       C371      -1
    RHS       C372      -1
    RHS       C374      -1
    RHS       C375      -1
    RHS       C377      -1
    RHS       C379      -1
    RHS       C380      -1
    RHS       C381      -1
    RHS       C385      -1
    RHS       C388      -1
    RHS       C391      -1
    RHS       C392      -1
    RHS       C397      -1
BOUNDS
 UP BOUND     x1        1
 UP BOUND     x2        1
 UP BOUND     x3        1
 UP BOUND     x4        1
 UP BOUND     x5        1
 UP BOUND     x7        1
 UP BOUND     x8        1
 UP BOUND     x10       1
 UP BOUND     x13       1
 UP BOUND     x14       1
 UP BOUND     x15       1
 UP BOUND     x16       1
 UP BOUND     x17       1
 UP BOUND     x23       1
 UP BOUND     x24       1
 UP BOUND     x25       1
 UP BOUND     x26       1
 UP BOUND     x27       1
 UP BOUND     x28       1
 UP BOUND     x30       1
 UP BOUND     x32       1
 UP BOUND     x33       1
 UP BOUND     x34       1
 UP BOUND     x35       1
 UP BOUND     x41       1
 UP BOUND     x42       1
 UP BOUND     x43       1
 UP BOUND     x47       1
 UP BOUND     x48       1
 UP BOUND     x51       1
 UP BOUND     x53       1
 UP BOUND     x54       1
 UP BOUND     x55       1
 UP BOUND     x57       1
 UP BOUND     x58       1
 UP BOUND     x60       1
 UP BOUND     x61       1
 UP BOUND     x62       1
 UP BOUND     x64       1
 UP BOUND     x65       1
 UP BOUND     x66       1
 UP BOUND     x69       1
 UP BOUND     x74       1
 UP BOUND     x75       1
 UP BOUND     x77       1
 UP BOUND     x78       1
 UP BOUND     x83       1
 UP BOUND     x86       1
 UP BOUND     x88       1
 UP BOUND     x91       1
 UP BOUND     x93       1
 UP BOUND     x96       1
 UP BOUND     x97       1
 UP BOUND     x99       1
 UP BOUND     x106      1
 UP BOUND     x108      1
 UP BOUND     x109      1
 UP BOUND     x113      1
 UP BOUND     x115      1
 UP BOUND     x117      1
 UP BOUND     x120      1
 UP BOUND     x122      1
 UP BOUND     x123      1
 UP BOUND     x125      1
 UP BOUND     x126      1
 UP BOUND     x127      1
 UP BOUND     x128      1
 UP BOUND     x129      1
 UP BOUND     x131      1
 UP BOUND     x133      1
 UP BOUND     x137      1
 UP BOUND     x138      1
 UP BOUND     x139      1
 UP BOUND     x140      1
 UP BOUND     x141      1
 UP BOUND     x148      1
 UP BOUND     x149      1
 UP BOUND     x150      1
 UP BOUND     x154      1
 UP BOUND     x159      1
 UP BOUND     x160      1
 UP BOUND     x161      1
 UP BOUND     x163      1
 UP BOUND     x167      1
 UP BOUND     x169      1
 UP BOUND     x170      1
 UP BOUND     x171      1
 UP BOUND     x172      1
 UP BOUND     x173      1
 UP BOUND     x174      1
 UP BOUND     x176      1
 UP BOUND     x177      1
 UP BOUND     x189      1
 UP BOUND     x191      1
 UP BOUND     x193      1
 UP BOUND     x195      1
 UP BOUND     x197      1
 UP BOUND     x198      1
 UP BOUND     x199      1
 UP BOUND     x202      1
 UP BOUND     x206      1
 UP BOUND     x207      1
 UP BOUND     x208      1
 UP BOUND     x210      1
 UP BOUND     x211      1
 UP BOUND     x215      1
 UP BOUND     x220      1
 UP BOUND     x221      1
 UP BOUND     x223      1
 UP BOUND     x226      1
 UP BOUND     x227      1
 UP BOUND     x228      1
 UP BOUND     x229      1
 UP BOUND     x231      1
 UP BOUND     x232      1
 UP BOUND     x233      1
 UP BOUND     x234      1
 UP BOUND     x240      1
 UP BOUND     x241      1
 UP BOUND     x247      1
 UP BOUND     x248      1
 UP BOUND     x249      1
 UP BOUND     x250      1
 UP BOUND     x252      1
 UP BOUND     x254      1
 UP BOUND     x255      1
 UP BOUND     x256      1
 UP BOUND     x257      1
 UP BOUND     x260      1
 UP BOUND     x264      1
 UP BOUND     x265      1
 UP BOUND     x266      1
 UP BOUND     x267      1
 UP BOUND     x269      1
 UP BOUND     x270      1
 UP BOUND     x272      1
 UP BOUND     x273      1
 UP BOUND     x274      1
 UP BOUND     x277      1
 UP BOUND     x278      1
 UP BOUND     x279      1
 UP BOUND     x280      1
 UP BOUND     x282      1
 UP BOUND     x283      1
 UP BOUND     x286      1
 UP BOUND     x287      1
 UP BOUND     x288      1
 UP BOUND     x290      1
 UP BOUND     x295      1
 UP BOUND     x296      1
 UP BOUND     x300      1
 UP BOUND     x302      1
 UP BOUND     x304      1
 UP BOUND     x305      1
 UP BOUND     x309      1
 UP BOUND     x311      1
 UP BOUND     x312      1
 UP BOUND     x313      1
 UP BOUND     x315      1
 UP BOUND     x317      1
 UP BOUND     x318      1
 UP BOUND     x319      1
 UP BOUND     x320      1
 UP BOUND     x321      1
 UP BOUND     x322      1
 UP BOUND     x323      1
 UP BOUND     x324      1
 UP BOUND     x327      1
 UP BOUND     x329      1
 UP BOUND     x330      1
 UP BOUND     x331      1
 UP BOUND     x332      1
 UP BOUND     x333      1
 UP BOUND     x334      1
 UP BOUND     x335      1
 UP BOUND     x340      1
 UP BOUND     x342      1
 UP BOUND     x343      1
 UP BOUND     x344      1
 UP BOUND     x345      1
 UP BOUND     x346      1
 UP BOUND     x349      1
 UP BOUND     x352      1
 UP BOUND     x353      1
 UP BOUND     x356      1
 UP BOUND     x359      1
 UP BOUND     x360      1
 UP BOUND     x361      1
 UP BOUND     x363      1
 UP BOUND     x366      1
 UP BOUND     x367      1
 UP BOUND     x368      1
 UP BOUND     x369      1
 UP BOUND     x370      1
 UP BOUND     x372      1
 UP BOUND     x378      1
 UP BOUND     x379      1
 UP BOUND     x380      1
 UP BOUND     x381      1
 UP BOUND     x382      1
 UP BOUND     x383      1
 UP BOUND     x385      1
 UP BOUND     x387      1
 UP BOUND     x389      1
 UP BOUND     x390      1
 UP BOUND     x393      1
 UP BOUND     x397      1
ENDATA
